letting n_nurses=25
letting n_days=7
letting n_shift_types=4
letting max_covers=8
letting t_covers=61
letting covers=[4,3,8,0,1,0,0,0,6,8,3,0,6,5,3,0,6,5,3,0,0,0,0,0,0,0,0,0]
letting prefes=[2,1,3,4,1,3,2,4,3,4,1,1,3,4,1,1,1,3,3,4,3,1,1,2,4,2,1,1,3,1,4,2,2,4,3,1,1,2,4,3,1,4,3,2,2,1,4,3,4,2,3,1,2,4,3,1,2,4,1,4,1,4,3,2,1,4,2,1,2,1,1,3,2,3,4,1,2,3,1,4,3,1,2,4,2,4,3,1,4,3,2,1,2,4,2,3,2,4,1,1,4,2,3,1,2,1,1,4,1,3,3,4,3,4,1,2,2,1,1,4,4,1,1,2,4,2,1,3,3,1,1,2,1,3,4,3,2,1,4,4,3,1,1,1,1,2,2,3,1,2,2,2,2,1,1,4,3,2,2,1,2,4,4,1,2,1,1,1,4,1,2,2,1,2,2,3,4,1,2,3,3,4,2,1,4,1,2,3,4,1,3,1,3,2,4,1,3,4,1,1,2,4,1,3,1,1,4,3,2,1,1,3,1,4,4,3,2,3,1,4,2,1,1,4,1,2,4,3,3,1,1,2,3,2,1,1,3,1,4,2,3,2,1,2,4,2,1,3,1,4,4,2,1,1,4,3,1,2,2,3,1,4,3,2,1,4,2,3,4,3,2,1,4,3,2,3,3,4,4,1,1,4,2,3,2,4,2,1,4,4,4,1,1,3,4,2,1,3,4,3,3,2,1,4,1,2,3,4,4,3,1,1,3,4,4,1,1,2,2,3,3,1,1,3,1,4,4,3,1,3,1,3,2,1,4,3,3,1,1,2,1,4,3,2,2,1,4,1,2,2,1,4,3,1,4,2,4,4,1,1,3,1,1,1,1,2,1,3,2,1,1,1,3,4,2,1,2,4,1,3,2,3,1,1,1,3,1,2,2,1,1,2,1,3,2,1,2,1,3,4,4,1,1,2,1,4,1,3,2,3,1,1,4,3,2,1,1,2,4,3,1,1,4,2,4,1,2,1,2,1,4,3,2,1,4,1,3,4,1,2,1,1,1,4,2,4,4,1,3,4,2,1,1,2,4,4,4,1,3,2,1,2,4,1,1,1,2,2,4,1,3,1,1,2,1,4,1,4,2,2,4,1,3,3,1,3,2,4,1,3,2,2,3,2,1,4,1,2,3,4,1,3,2,4,1,3,1,1,4,4,1,2,4,2,3,2,1,3,2,3,3,1,4,2,1,3,1,4,4,1,2,3,1,1,2,4,1,2,1,3,4,3,2,1,3,4,4,1,1,1,2,1,3,1,2,1,4,2,2,1,3,2,1,2,3,2,2,1,1,2,1,3,2,1,2,1,1,2,2,3,4,1,2,1,4,1,1,2,1,1,2,3,1,2,1,1,2,1,1,4,4,1,3,2,1,3,2,1,1,2,2,4,1,2,1,1,4,3,4,1,2,1,4,3,4,2,2,3,1,4,1,3,2,1,1,3,2,3,4,1,1,4,2,3,4,1,3,2,4,1,1,3,3,4,1,1,4,2,3,3,3,1,1,1,1,3,4,2,2,3,4,1,4,2,1,1,2,4,1,1,4,1,1,3,1,3,3,4,1,1,4,3,1,4,4,2,1,1,4,2]
letting ub =  192
